problem_generation/data/GISP/train/er_n=63_m=1203_p=0.60_SET2_setparam=100.00_alpha=0.50_438.lp
maximize
OBJ:100x0 + 100x1 + 100x2 + 100x3 + 100x4 + 100x5 + 100x6 + 100x7 + 100x8 + 100x9 + 100x10 + 100x11 + 100x12 + 100x13 + 100x14 + 100x15 + 100x16 + 100x17 + 100x18 + 100x19 + 100x20 + 100x21 + 100x22 + 100x23 + 100x24 + 100x25 + 100x26 + 100x27 + 100x28 + 100x29 + 100x30 + 100x31 + 100x32 + 100x33 + 100x34 + 100x35 + 100x36 + 100x37 + 100x38 + 100x39 + 100x40 + 100x41 + 100x42 + 100x43 + 100x44 + 100x45 + 100x46 + 100x47 + 100x48 + 100x49 + 100x50 + 100x51 + 100x52 + 100x53 + 100x54 + 100x55 + 100x56 + 100x57 + 100x58 + 100x59 + 100x60 + 100x61 + 100x62 - y15_21 - y47_53 - y15_30 - y47_62 - y15_39 - y17_58 - y7_35 - y0_5 - y29_41 - y8_18 - y21_37 - y48_54 - y0_14 - y6_48 - y0_23 - y40_59 - y21_55 - y41_42 - y10_36 - y41_51 - y10_45 - y2_41 - y33_56 - y2_50 - y14_15 - y25_52 - y22_28 - y3_24 - y43_60 - y3_33 - y3_42 - y14_42 - y36_48 - y55_61 - y47_57 - y17_53 - y9_49 - y17_62 - y9_58 - y29_36 - y21_32 - y40_45 - y6_52 - y40_54 - y10_31 - y2_27 - y2_45 - y51_59 - y32_55 - y16_56 - y55_56 - y28_39 - y28_48 - y47_61 - y9_44 - y5_55 - y9_53 - y6_29 - y9_62 - y21_27 - y29_49 - y54_60 - y2_40 - y25_42 - y2_49 - y22_27 - y13_46 - y14_23 - y13_55 - y24_55 - y14_32 - y1_62 - y16_60 - y17_25 - y28_34 - y36_47 - y5_41 - y28_43 - y21_31 - y6_42 - y40_44 - y6_51 - y39_48 - y39_57 - y54_55 - y10_30 - y20_62 - y31_62 - y2_35 - y13_32 - y24_32 - y32_45 - y24_41 - y35_41 - y3_18 - y14_18 - y1_48 - y13_50 - y1_57 - y9_25 - y5_36 - y28_47 - y6_10 - y17_56 - y28_56 - y21_26 - y6_37 - y2_3 - y10_25 - y12_44 - y39_61 - y12_53 - y51_53 - y1_43 - y13_45 - y32_58 - y35_54 - y16_50 - y17_33 - y6_23 - y42_44 - y58_61 - y6_32 - y21_30 - y30_60 - y0_56 - y20_34 - y10_11 - y39_47 - y12_39 - y2_16 - y23_48 - y20_61 - y4_44 - y31_61 - y32_35 - y16_18 - y13_31 - y24_40 - y35_40 - y43_53 - y16_36 - y24_49 - y46_55 - y9_15 - y38_51 - y5_35 - y6_9 - y6_18 - y27_50 - y42_48 - y42_57 - y39_42 - y20_38 - y31_38 - y39_51 - y31_47 - y23_43 - y4_39 - y12_52 - y1_15 - y13_17 - y23_61 - y34_58 - y1_33 - y24_35 - y16_31 - y13_44 - y9_10 - y38_46 - y5_21 - y15_62 - y7_58 - y18_58 - y8_32 - y27_45 - y8_41 - y30_50 - y42_52 - y19_59 - y42_61 - y0_55 - y11_55 - y39_46 - y20_42 - y31_42 - y12_38 - y23_38 - y12_47 - y23_47 - y4_43 - y23_56 - y13_21 - y45_53 - y24_30 - y22_60 - y34_62 - y37_58 - y16_35 - y1_46 - y5_16 - y18_53 - y7_62 - y30_36 - y0_32 - y19_45 - y0_41 - y8_54 - y11_50 - y12_33 - y4_29 - y4_47 - y53_61 - y22_55 - y34_57 - y3_51 - y37_53 - y16_30 - y14_60 - y15_34 - y5_11 - y15_43 - y38_45 - y46_58 - y57_58 - y7_48 - y15_61 - y26_61 - y19_22 - y27_35 - y0_18 - y11_18 - y8_31 - y30_31 - y27_44 - y0_27 - y11_36 - y8_49 - y41_46 - y30_58 - y20_23 - y4_6 - y41_55 - y52_55 - y20_32 - y4_15 - y31_32 - y1_9 - y22_41 - y37_48 - y22_59 - y45_61 - y56_61 - y37_57 - y15_20 - y7_25 - y18_25 - y38_40 - y15_47 - y38_49 - y26_56 - y0_13 - y11_13 - y8_26 - y18_61 - y48_62 - y0_22 - y8_35 - y30_35 - y11_31 - y19_44 - y30_44 - y12_14 - y12_23 - y41_59 - y1_4 - y1_13 - y3_32 - y34_56 - y14_50 - y3_59 - y14_59 - y7_20 - y18_20 - y18_38 - y0_8 - y0_17 - y29_53 - y29_62 - y4_5 - y10_48 - y44_50 - y2_44 - y2_53 - y25_55 - y14_36 - y37_38 - y3_45 - y22_58 - y26_37 - y8_16 - y0_21 - y6_55 - y29_57 - y21_62 - y10_34 - y41_49 - y4_9 - y33_45 - y52_58 - y2_39 - y44_54 - y2_48 - y2_57 - y3_22 - y22_35 - y14_40 - y7_10 - y36_55 - y47_55 - y7_28 - y28_60 - y8_11 - y29_43 - y11_16 - y29_52 - y40_61 - y2_25 - y33_40 - y2_34 - y25_36 - y33_49 - y10_56 - y2_52 - y25_54 - y2_61 - y14_26 - y32_62 - y47_50 - y17_46 - y28_46 - y47_59 - y9_42 - y6_36 - y21_34 - y2_47 - y51_61 - y3_21 - y13_62 - y24_62 - y35_62 - y16_58 - y17_32 - y36_45 - y55_58 - y28_41 - y9_37 - y5_48 - y28_50 - y17_59 - y29_33 - y40_42 - y21_47 - y6_58 - y31_60 - y54_62 - y2_33 - y25_35 - y3_7 - y32_43 - y35_39 - y3_16 - y14_25 - y16_44 - y16_53 - y16_62 - y36_40 - y5_43 - y17_45 - y36_58 - y5_52 - y9_59 - y29_37 - y21_33 - y6_44 - y21_42 - y31_46 - y31_55 - y12_51 - y4_56 - y32_38 - y51_60 - y1_41 - y13_43 - y13_52 - y35_52 - y5_20 - y9_18 - y5_29 - y17_31 - y9_27 - y58_59 - y50_55 - y6_30 - y27_62 - y8_58 - y31_41 - y2_23 - y31_59 - y13_20 - y4_51 - y4_60 - y32_42 - y51_55 - y1_36 - y35_38 - y24_56 - y5_15 - y46_62 - y57_62 - y36_39 - y9_22 - y5_33 - y17_35 - y28_44 - y6_25 - y19_53 - y42_55 - y8_62 - y11_58 - y31_36 - y39_58 - y2_18 - y31_54 - y12_50 - y4_55 - y13_33 - y1_49 - y16_47 - y38_44 - y9_35 - y30_39 - y27_52 - y27_61 - y0_44 - y11_44 - y19_57 - y30_57 - y20_31 - y39_44 - y39_53 - y31_49 - y53_55 - y1_26 - y4_59 - y16_24 - y56_60 - y24_37 - y16_42 - y46_52 - y57_61 - y9_21 - y18_51 - y18_60 - y8_34 - y19_34 - y0_30 - y30_43 - y27_56 - y42_54 - y12_13 - y11_57 - y12_22 - y12_31 - y23_31 - y31_44 - y23_40 - y4_36 - y1_12 - y13_14 - y4_45 - y4_54 - y16_19 - y22_62 - y14_58 - y37_60 - y15_41 - y5_18 - y15_50 - y38_61 - y49_61 - y8_20 - y0_25 - y19_38 - y0_43 - y19_56 - y20_21 - y20_30 - y23_26 - y31_39 - y23_35 - y4_31 - y23_44 - y13_18 - y53_54 - y45_50 - y16_23 - y3_53 - y26_27 - y26_36 - y46_51 - y7_32 - y15_45 - y26_45 - y18_41 - y38_56 - y18_50 - y0_11 - y18_59 - y27_37 - y19_33 - y27_46 - y8_42 - y19_51 - y41_48 - y41_57 - y52_57 - y25_49 - y33_62 - y25_58 - y4_35 - y34_45 - y1_20 - y22_52 - y34_54 - y3_48 - y15_58 - y18_54 - y7_54 - y29_60 - y8_37 - y19_37 - y11_42 - y4_12 - y33_57 - y25_62 - y14_43 - y3_61 - y18_22 - y26_35 - y18_31 - y15_44 - y26_44 - y7_49 - y8_14 - y18_49 - y0_10 - y19_23 - y0_19 - y40_55 - y21_60 - y33_43 - y10_50 - y2_46 - y2_55 - y14_20 - y22_33 - y34_35 - y3_29 - y37_49
 Subject to
C1: x0+x1 <=1 
C2: x0+x2 <=1 
C3: x0+x5-y0_5 <=1 
C4: x0+x6 <=1 
C5: x0+x7 <=1 
C6: x0+x8-y0_8 <=1 
C7: x0+x9 <=1 
C8: x0+x10-y0_10 <=1 
C9: x0+x11-y0_11 <=1 
C10: x0+x13-y0_13 <=1 
C11: x0+x14-y0_14 <=1 
C12: x0+x16 <=1 
C13: x0+x17-y0_17 <=1 
C14: x0+x18-y0_18 <=1 
C15: x0+x19-y0_19 <=1 
C16: x0+x21-y0_21 <=1 
C17: x0+x22-y0_22 <=1 
C18: x0+x23-y0_23 <=1 
C19: x0+x24 <=1 
C20: x0+x25-y0_25 <=1 
C21: x0+x27-y0_27 <=1 
C22: x0+x29 <=1 
C23: x0+x30-y0_30 <=1 
C24: x0+x31 <=1 
C25: x0+x32-y0_32 <=1 
C26: x0+x35 <=1 
C27: x0+x39 <=1 
C28: x0+x41-y0_41 <=1 
C29: x0+x43-y0_43 <=1 
C30: x0+x44-y0_44 <=1 
C31: x0+x49 <=1 
C32: x0+x50 <=1 
C33: x0+x51 <=1 
C34: x0+x52 <=1 
C35: x0+x53 <=1 
C36: x0+x55-y0_55 <=1 
C37: x0+x56-y0_56 <=1 
C38: x0+x60 <=1 
C39: x1+x2 <=1 
C40: x1+x4-y1_4 <=1 
C41: x1+x5 <=1 
C42: x1+x7 <=1 
C43: x1+x9-y1_9 <=1 
C44: x1+x11 <=1 
C45: x1+x12-y1_12 <=1 
C46: x1+x13-y1_13 <=1 
C47: x1+x14 <=1 
C48: x1+x15-y1_15 <=1 
C49: x1+x18 <=1 
C50: x1+x20-y1_20 <=1 
C51: x1+x21 <=1 
C52: x1+x24 <=1 
C53: x1+x26-y1_26 <=1 
C54: x1+x27 <=1 
C55: x1+x33-y1_33 <=1 
C56: x1+x35 <=1 
C57: x1+x36-y1_36 <=1 
C58: x1+x38 <=1 
C59: x1+x39 <=1 
C60: x1+x41-y1_41 <=1 
C61: x1+x43-y1_43 <=1 
C62: x1+x44 <=1 
C63: x1+x46-y1_46 <=1 
C64: x1+x47 <=1 
C65: x1+x48-y1_48 <=1 
C66: x1+x49-y1_49 <=1 
C67: x1+x50 <=1 
C68: x1+x51 <=1 
C69: x1+x54 <=1 
C70: x1+x56 <=1 
C71: x1+x57-y1_57 <=1 
C72: x1+x58 <=1 
C73: x1+x59 <=1 
C74: x1+x62-y1_62 <=1 
C75: x2+x3-y2_3 <=1 
C76: x2+x6 <=1 
C77: x2+x8 <=1 
C78: x2+x9 <=1 
C79: x2+x12 <=1 
C80: x2+x13 <=1 
C81: x2+x15 <=1 
C82: x2+x16-y2_16 <=1 
C83: x2+x17 <=1 
C84: x2+x18-y2_18 <=1 
C85: x2+x19 <=1 
C86: x2+x21 <=1 
C87: x2+x23-y2_23 <=1 
C88: x2+x25-y2_25 <=1 
C89: x2+x27-y2_27 <=1 
C90: x2+x29 <=1 
C91: x2+x30 <=1 
C92: x2+x32 <=1 
C93: x2+x33-y2_33 <=1 
C94: x2+x34-y2_34 <=1 
C95: x2+x35-y2_35 <=1 
C96: x2+x37 <=1 
C97: x2+x38 <=1 
C98: x2+x39-y2_39 <=1 
C99: x2+x40-y2_40 <=1 
C100: x2+x41-y2_41 <=1 
C101: x2+x42 <=1 
C102: x2+x44-y2_44 <=1 
C103: x2+x45-y2_45 <=1 
C104: x2+x46-y2_46 <=1 
C105: x2+x47-y2_47 <=1 
C106: x2+x48-y2_48 <=1 
C107: x2+x49-y2_49 <=1 
C108: x2+x50-y2_50 <=1 
C109: x2+x51 <=1 
C110: x2+x52-y2_52 <=1 
C111: x2+x53-y2_53 <=1 
C112: x2+x55-y2_55 <=1 
C113: x2+x56 <=1 
C114: x2+x57-y2_57 <=1 
C115: x2+x59 <=1 
C116: x2+x61-y2_61 <=1 
C117: x2+x62 <=1 
C118: x3+x6 <=1 
C119: x3+x7-y3_7 <=1 
C120: x3+x8 <=1 
C121: x3+x9 <=1 
C122: x3+x11 <=1 
C123: x3+x14 <=1 
C124: x3+x15 <=1 
C125: x3+x16-y3_16 <=1 
C126: x3+x18-y3_18 <=1 
C127: x3+x21-y3_21 <=1 
C128: x3+x22-y3_22 <=1 
C129: x3+x23 <=1 
C130: x3+x24-y3_24 <=1 
C131: x3+x28 <=1 
C132: x3+x29-y3_29 <=1 
C133: x3+x31 <=1 
C134: x3+x32-y3_32 <=1 
C135: x3+x33-y3_33 <=1 
C136: x3+x35 <=1 
C137: x3+x37 <=1 
C138: x3+x38 <=1 
C139: x3+x42-y3_42 <=1 
C140: x3+x44 <=1 
C141: x3+x45-y3_45 <=1 
C142: x3+x46 <=1 
C143: x3+x47 <=1 
C144: x3+x48-y3_48 <=1 
C145: x3+x51-y3_51 <=1 
C146: x3+x52 <=1 
C147: x3+x53-y3_53 <=1 
C148: x3+x54 <=1 
C149: x3+x56 <=1 
C150: x3+x59-y3_59 <=1 
C151: x3+x60 <=1 
C152: x3+x61-y3_61 <=1 
C153: x3+x62 <=1 
C154: x4+x5-y4_5 <=1 
C155: x4+x6-y4_6 <=1 
C156: x4+x9-y4_9 <=1 
C157: x4+x12-y4_12 <=1 
C158: x4+x15-y4_15 <=1 
C159: x4+x16 <=1 
C160: x4+x19 <=1 
C161: x4+x22 <=1 
C162: x4+x23 <=1 
C163: x4+x25 <=1 
C164: x4+x26 <=1 
C165: x4+x29-y4_29 <=1 
C166: x4+x31-y4_31 <=1 
C167: x4+x32 <=1 
C168: x4+x33 <=1 
C169: x4+x34 <=1 
C170: x4+x35-y4_35 <=1 
C171: x4+x36-y4_36 <=1 
C172: x4+x39-y4_39 <=1 
C173: x4+x42 <=1 
C174: x4+x43-y4_43 <=1 
C175: x4+x44-y4_44 <=1 
C176: x4+x45-y4_45 <=1 
C177: x4+x47-y4_47 <=1 
C178: x4+x48 <=1 
C179: x4+x49 <=1 
C180: x4+x50 <=1 
C181: x4+x51-y4_51 <=1 
C182: x4+x52 <=1 
C183: x4+x54-y4_54 <=1 
C184: x4+x55-y4_55 <=1 
C185: x4+x56-y4_56 <=1 
C186: x4+x57 <=1 
C187: x4+x59-y4_59 <=1 
C188: x4+x60-y4_60 <=1 
C189: x4+x61 <=1 
C190: x4+x62 <=1 
C191: x5+x7 <=1 
C192: x5+x9 <=1 
C193: x5+x10 <=1 
C194: x5+x11-y5_11 <=1 
C195: x5+x14 <=1 
C196: x5+x15-y5_15 <=1 
C197: x5+x16-y5_16 <=1 
C198: x5+x17 <=1 
C199: x5+x18-y5_18 <=1 
C200: x5+x19 <=1 
C201: x5+x20-y5_20 <=1 
C202: x5+x21-y5_21 <=1 
C203: x5+x23 <=1 
C204: x5+x26 <=1 
C205: x5+x28 <=1 
C206: x5+x29-y5_29 <=1 
C207: x5+x31 <=1 
C208: x5+x32 <=1 
C209: x5+x33-y5_33 <=1 
C210: x5+x34 <=1 
C211: x5+x35-y5_35 <=1 
C212: x5+x36-y5_36 <=1 
C213: x5+x39 <=1 
C214: x5+x41-y5_41 <=1 
C215: x5+x43-y5_43 <=1 
C216: x5+x45 <=1 
C217: x5+x46 <=1 
C218: x5+x47 <=1 
C219: x5+x48-y5_48 <=1 
C220: x5+x52-y5_52 <=1 
C221: x5+x53 <=1 
C222: x5+x55-y5_55 <=1 
C223: x5+x57 <=1 
C224: x5+x61 <=1 
C225: x6+x8 <=1 
C226: x6+x9-y6_9 <=1 
C227: x6+x10-y6_10 <=1 
C228: x6+x14 <=1 
C229: x6+x15 <=1 
C230: x6+x18-y6_18 <=1 
C231: x6+x20 <=1 
C232: x6+x22 <=1 
C233: x6+x23-y6_23 <=1 
C234: x6+x25-y6_25 <=1 
C235: x6+x28 <=1 
C236: x6+x29-y6_29 <=1 
C237: x6+x30-y6_30 <=1 
C238: x6+x32-y6_32 <=1 
C239: x6+x33 <=1 
C240: x6+x36-y6_36 <=1 
C241: x6+x37-y6_37 <=1 
C242: x6+x38 <=1 
C243: x6+x40 <=1 
C244: x6+x42-y6_42 <=1 
C245: x6+x43 <=1 
C246: x6+x44-y6_44 <=1 
C247: x6+x47 <=1 
C248: x6+x48-y6_48 <=1 
C249: x6+x51-y6_51 <=1 
C250: x6+x52-y6_52 <=1 
C251: x6+x55-y6_55 <=1 
C252: x6+x58-y6_58 <=1 
C253: x6+x59 <=1 
C254: x6+x60 <=1 
C255: x6+x62 <=1 
C256: x7+x10-y7_10 <=1 
C257: x7+x11 <=1 
C258: x7+x12 <=1 
C259: x7+x15 <=1 
C260: x7+x18 <=1 
C261: x7+x20-y7_20 <=1 
C262: x7+x21 <=1 
C263: x7+x22 <=1 
C264: x7+x23 <=1 
C265: x7+x25-y7_25 <=1 
C266: x7+x28-y7_28 <=1 
C267: x7+x30 <=1 
C268: x7+x32-y7_32 <=1 
C269: x7+x33 <=1 
C270: x7+x35-y7_35 <=1 
C271: x7+x37 <=1 
C272: x7+x38 <=1 
C273: x7+x43 <=1 
C274: x7+x44 <=1 
C275: x7+x48-y7_48 <=1 
C276: x7+x49-y7_49 <=1 
C277: x7+x50 <=1 
C278: x7+x51 <=1 
C279: x7+x52 <=1 
C280: x7+x54-y7_54 <=1 
C281: x7+x55 <=1 
C282: x7+x56 <=1 
C283: x7+x58-y7_58 <=1 
C284: x7+x59 <=1 
C285: x7+x62-y7_62 <=1 
C286: x8+x11-y8_11 <=1 
C287: x8+x13 <=1 
C288: x8+x14-y8_14 <=1 
C289: x8+x16-y8_16 <=1 
C290: x8+x18-y8_18 <=1 
C291: x8+x19 <=1 
C292: x8+x20-y8_20 <=1 
C293: x8+x21 <=1 
C294: x8+x23 <=1 
C295: x8+x26-y8_26 <=1 
C296: x8+x27 <=1 
C297: x8+x31-y8_31 <=1 
C298: x8+x32-y8_32 <=1 
C299: x8+x33 <=1 
C300: x8+x34-y8_34 <=1 
C301: x8+x35-y8_35 <=1 
C302: x8+x36 <=1 
C303: x8+x37-y8_37 <=1 
C304: x8+x38 <=1 
C305: x8+x40 <=1 
C306: x8+x41-y8_41 <=1 
C307: x8+x42-y8_42 <=1 
C308: x8+x44 <=1 
C309: x8+x45 <=1 
C310: x8+x48 <=1 
C311: x8+x49-y8_49 <=1 
C312: x8+x52 <=1 
C313: x8+x53 <=1 
C314: x8+x54-y8_54 <=1 
C315: x8+x55 <=1 
C316: x8+x57 <=1 
C317: x8+x58-y8_58 <=1 
C318: x8+x60 <=1 
C319: x8+x62-y8_62 <=1 
C320: x9+x10-y9_10 <=1 
C321: x9+x13 <=1 
C322: x9+x15-y9_15 <=1 
C323: x9+x18-y9_18 <=1 
C324: x9+x20 <=1 
C325: x9+x21-y9_21 <=1 
C326: x9+x22-y9_22 <=1 
C327: x9+x25-y9_25 <=1 
C328: x9+x26 <=1 
C329: x9+x27-y9_27 <=1 
C330: x9+x31 <=1 
C331: x9+x32 <=1 
C332: x9+x34 <=1 
C333: x9+x35-y9_35 <=1 
C334: x9+x37-y9_37 <=1 
C335: x9+x39 <=1 
C336: x9+x41 <=1 
C337: x9+x42-y9_42 <=1 
C338: x9+x44-y9_44 <=1 
C339: x9+x47 <=1 
C340: x9+x48 <=1 
C341: x9+x49-y9_49 <=1 
C342: x9+x50 <=1 
C343: x9+x53-y9_53 <=1 
C344: x9+x55 <=1 
C345: x9+x58-y9_58 <=1 
C346: x9+x59-y9_59 <=1 
C347: x9+x62-y9_62 <=1 
C348: x10+x11-y10_11 <=1 
C349: x10+x13 <=1 
C350: x10+x15 <=1 
C351: x10+x17 <=1 
C352: x10+x19 <=1 
C353: x10+x21 <=1 
C354: x10+x22 <=1 
C355: x10+x24 <=1 
C356: x10+x25-y10_25 <=1 
C357: x10+x26 <=1 
C358: x10+x28 <=1 
C359: x10+x29 <=1 
C360: x10+x30-y10_30 <=1 
C361: x10+x31-y10_31 <=1 
C362: x10+x33 <=1 
C363: x10+x34-y10_34 <=1 
C364: x10+x36-y10_36 <=1 
C365: x10+x37 <=1 
C366: x10+x38 <=1 
C367: x10+x39 <=1 
C368: x10+x41 <=1 
C369: x10+x42 <=1 
C370: x10+x43 <=1 
C371: x10+x45-y10_45 <=1 
C372: x10+x48-y10_48 <=1 
C373: x10+x50-y10_50 <=1 
C374: x10+x51 <=1 
C375: x10+x52 <=1 
C376: x10+x53 <=1 
C377: x10+x56-y10_56 <=1 
C378: x10+x58 <=1 
C379: x10+x59 <=1 
C380: x10+x60 <=1 
C381: x10+x62 <=1 
C382: x11+x12 <=1 
C383: x11+x13-y11_13 <=1 
C384: x11+x15 <=1 
C385: x11+x16-y11_16 <=1 
C386: x11+x18-y11_18 <=1 
C387: x11+x20 <=1 
C388: x11+x22 <=1 
C389: x11+x25 <=1 
C390: x11+x29 <=1 
C391: x11+x30 <=1 
C392: x11+x31-y11_31 <=1 
C393: x11+x32 <=1 
C394: x11+x33 <=1 
C395: x11+x36-y11_36 <=1 
C396: x11+x37 <=1 
C397: x11+x39 <=1 
C398: x11+x42-y11_42 <=1 
C399: x11+x43 <=1 
C400: x11+x44-y11_44 <=1 
C401: x11+x46 <=1 
C402: x11+x47 <=1 
C403: x11+x50-y11_50 <=1 
C404: x11+x51 <=1 
C405: x11+x52 <=1 
C406: x11+x55-y11_55 <=1 
C407: x11+x56 <=1 
C408: x11+x57-y11_57 <=1 
C409: x11+x58-y11_58 <=1 
C410: x11+x59 <=1 
C411: x11+x62 <=1 
C412: x12+x13-y12_13 <=1 
C413: x12+x14-y12_14 <=1 
C414: x12+x16 <=1 
C415: x12+x22-y12_22 <=1 
C416: x12+x23-y12_23 <=1 
C417: x12+x29 <=1 
C418: x12+x31-y12_31 <=1 
C419: x12+x32 <=1 
C420: x12+x33-y12_33 <=1 
C421: x12+x34 <=1 
C422: x12+x35 <=1 
C423: x12+x36 <=1 
C424: x12+x38-y12_38 <=1 
C425: x12+x39-y12_39 <=1 
C426: x12+x41 <=1 
C427: x12+x44-y12_44 <=1 
C428: x12+x45 <=1 
C429: x12+x47-y12_47 <=1 
C430: x12+x49 <=1 
C431: x12+x50-y12_50 <=1 
C432: x12+x51-y12_51 <=1 
C433: x12+x52-y12_52 <=1 
C434: x12+x53-y12_53 <=1 
C435: x12+x56 <=1 
C436: x12+x59 <=1 
C437: x13+x14-y13_14 <=1 
C438: x13+x15 <=1 
C439: x13+x16 <=1 
C440: x13+x17-y13_17 <=1 
C441: x13+x18-y13_18 <=1 
C442: x13+x19 <=1 
C443: x13+x20-y13_20 <=1 
C444: x13+x21-y13_21 <=1 
C445: x13+x26 <=1 
C446: x13+x27 <=1 
C447: x13+x30 <=1 
C448: x13+x31-y13_31 <=1 
C449: x13+x32-y13_32 <=1 
C450: x13+x33-y13_33 <=1 
C451: x13+x36 <=1 
C452: x13+x37 <=1 
C453: x13+x43-y13_43 <=1 
C454: x13+x44-y13_44 <=1 
C455: x13+x45-y13_45 <=1 
C456: x13+x46-y13_46 <=1 
C457: x13+x47 <=1 
C458: x13+x48 <=1 
C459: x13+x50-y13_50 <=1 
C460: x13+x51 <=1 
C461: x13+x52-y13_52 <=1 
C462: x13+x53 <=1 
C463: x13+x54 <=1 
C464: x13+x55-y13_55 <=1 
C465: x13+x56 <=1 
C466: x13+x60 <=1 
C467: x13+x62-y13_62 <=1 
C468: x14+x15-y14_15 <=1 
C469: x14+x16 <=1 
C470: x14+x18-y14_18 <=1 
C471: x14+x19 <=1 
C472: x14+x20-y14_20 <=1 
C473: x14+x22 <=1 
C474: x14+x23-y14_23 <=1 
C475: x14+x24 <=1 
C476: x14+x25-y14_25 <=1 
C477: x14+x26-y14_26 <=1 
C478: x14+x27 <=1 
C479: x14+x29 <=1 
C480: x14+x31 <=1 
C481: x14+x32-y14_32 <=1 
C482: x14+x33 <=1 
C483: x14+x34 <=1 
C484: x14+x36-y14_36 <=1 
C485: x14+x39 <=1 
C486: x14+x40-y14_40 <=1 
C487: x14+x42-y14_42 <=1 
C488: x14+x43-y14_43 <=1 
C489: x14+x44 <=1 
C490: x14+x48 <=1 
C491: x14+x49 <=1 
C492: x14+x50-y14_50 <=1 
C493: x14+x52 <=1 
C494: x14+x53 <=1 
C495: x14+x56 <=1 
C496: x14+x58-y14_58 <=1 
C497: x14+x59-y14_59 <=1 
C498: x14+x60-y14_60 <=1 
C499: x15+x17 <=1 
C500: x15+x19 <=1 
C501: x15+x20-y15_20 <=1 
C502: x15+x21-y15_21 <=1 
C503: x15+x22 <=1 
C504: x15+x24 <=1 
C505: x15+x30-y15_30 <=1 
C506: x15+x33 <=1 
C507: x15+x34-y15_34 <=1 
C508: x15+x36 <=1 
C509: x15+x38 <=1 
C510: x15+x39-y15_39 <=1 
C511: x15+x40 <=1 
C512: x15+x41-y15_41 <=1 
C513: x15+x43-y15_43 <=1 
C514: x15+x44-y15_44 <=1 
C515: x15+x45-y15_45 <=1 
C516: x15+x47-y15_47 <=1 
C517: x15+x48 <=1 
C518: x15+x50-y15_50 <=1 
C519: x15+x55 <=1 
C520: x15+x58-y15_58 <=1 
C521: x15+x59 <=1 
C522: x15+x60 <=1 
C523: x15+x61-y15_61 <=1 
C524: x15+x62-y15_62 <=1 
C525: x16+x17 <=1 
C526: x16+x18-y16_18 <=1 
C527: x16+x19-y16_19 <=1 
C528: x16+x22 <=1 
C529: x16+x23-y16_23 <=1 
C530: x16+x24-y16_24 <=1 
C531: x16+x26 <=1 
C532: x16+x29 <=1 
C533: x16+x30-y16_30 <=1 
C534: x16+x31-y16_31 <=1 
C535: x16+x32 <=1 
C536: x16+x33 <=1 
C537: x16+x35-y16_35 <=1 
C538: x16+x36-y16_36 <=1 
C539: x16+x38 <=1 
C540: x16+x39 <=1 
C541: x16+x40 <=1 
C542: x16+x42-y16_42 <=1 
C543: x16+x44-y16_44 <=1 
C544: x16+x45 <=1 
C545: x16+x47-y16_47 <=1 
C546: x16+x48 <=1 
C547: x16+x50-y16_50 <=1 
C548: x16+x53-y16_53 <=1 
C549: x16+x55 <=1 
C550: x16+x56-y16_56 <=1 
C551: x16+x58-y16_58 <=1 
C552: x16+x59 <=1 
C553: x16+x60-y16_60 <=1 
C554: x16+x61 <=1 
C555: x16+x62-y16_62 <=1 
C556: x17+x19 <=1 
C557: x17+x20 <=1 
C558: x17+x23 <=1 
C559: x17+x25-y17_25 <=1 
C560: x17+x29 <=1 
C561: x17+x31-y17_31 <=1 
C562: x17+x32-y17_32 <=1 
C563: x17+x33-y17_33 <=1 
C564: x17+x34 <=1 
C565: x17+x35-y17_35 <=1 
C566: x17+x37 <=1 
C567: x17+x39 <=1 
C568: x17+x40 <=1 
C569: x17+x44 <=1 
C570: x17+x45-y17_45 <=1 
C571: x17+x46-y17_46 <=1 
C572: x17+x47 <=1 
C573: x17+x48 <=1 
C574: x17+x49 <=1 
C575: x17+x52 <=1 
C576: x17+x53-y17_53 <=1 
C577: x17+x54 <=1 
C578: x17+x55 <=1 
C579: x17+x56-y17_56 <=1 
C580: x17+x58-y17_58 <=1 
C581: x17+x59-y17_59 <=1 
C582: x17+x62-y17_62 <=1 
C583: x18+x20-y18_20 <=1 
C584: x18+x21 <=1 
C585: x18+x22-y18_22 <=1 
C586: x18+x24 <=1 
C587: x18+x25-y18_25 <=1 
C588: x18+x26 <=1 
C589: x18+x29 <=1 
C590: x18+x30 <=1 
C591: x18+x31-y18_31 <=1 
C592: x18+x36 <=1 
C593: x18+x37 <=1 
C594: x18+x38-y18_38 <=1 
C595: x18+x39 <=1 
C596: x18+x41-y18_41 <=1 
C597: x18+x43 <=1 
C598: x18+x46 <=1 
C599: x18+x48 <=1 
C600: x18+x49-y18_49 <=1 
C601: x18+x50-y18_50 <=1 
C602: x18+x51-y18_51 <=1 
C603: x18+x53-y18_53 <=1 
C604: x18+x54-y18_54 <=1 
C605: x18+x57 <=1 
C606: x18+x58-y18_58 <=1 
C607: x18+x59-y18_59 <=1 
C608: x18+x60-y18_60 <=1 
C609: x18+x61-y18_61 <=1 
C610: x19+x20 <=1 
C611: x19+x22-y19_22 <=1 
C612: x19+x23-y19_23 <=1 
C613: x19+x25 <=1 
C614: x19+x26 <=1 
C615: x19+x28 <=1 
C616: x19+x29 <=1 
C617: x19+x30 <=1 
C618: x19+x31 <=1 
C619: x19+x32 <=1 
C620: x19+x33-y19_33 <=1 
C621: x19+x34-y19_34 <=1 
C622: x19+x36 <=1 
C623: x19+x37-y19_37 <=1 
C624: x19+x38-y19_38 <=1 
C625: x19+x39 <=1 
C626: x19+x40 <=1 
C627: x19+x42 <=1 
C628: x19+x44-y19_44 <=1 
C629: x19+x45-y19_45 <=1 
C630: x19+x51-y19_51 <=1 
C631: x19+x53-y19_53 <=1 
C632: x19+x55 <=1 
C633: x19+x56-y19_56 <=1 
C634: x19+x57-y19_57 <=1 
C635: x19+x58 <=1 
C636: x19+x59-y19_59 <=1 
C637: x19+x60 <=1 
C638: x19+x61 <=1 
C639: x19+x62 <=1 
C640: x20+x21-y20_21 <=1 
C641: x20+x22 <=1 
C642: x20+x23-y20_23 <=1 
C643: x20+x27 <=1 
C644: x20+x29 <=1 
C645: x20+x30-y20_30 <=1 
C646: x20+x31-y20_31 <=1 
C647: x20+x32-y20_32 <=1 
C648: x20+x33 <=1 
C649: x20+x34-y20_34 <=1 
C650: x20+x35 <=1 
C651: x20+x36 <=1 
C652: x20+x37 <=1 
C653: x20+x38-y20_38 <=1 
C654: x20+x40 <=1 
C655: x20+x42-y20_42 <=1 
C656: x20+x43 <=1 
C657: x20+x44 <=1 
C658: x20+x47 <=1 
C659: x20+x48 <=1 
C660: x20+x49 <=1 
C661: x20+x50 <=1 
C662: x20+x51 <=1 
C663: x20+x52 <=1 
C664: x20+x54 <=1 
C665: x20+x58 <=1 
C666: x20+x59 <=1 
C667: x20+x60 <=1 
C668: x20+x61-y20_61 <=1 
C669: x20+x62-y20_62 <=1 
C670: x21+x22 <=1 
C671: x21+x24 <=1 
C672: x21+x26-y21_26 <=1 
C673: x21+x27-y21_27 <=1 
C674: x21+x30-y21_30 <=1 
C675: x21+x31-y21_31 <=1 
C676: x21+x32-y21_32 <=1 
C677: x21+x33-y21_33 <=1 
C678: x21+x34-y21_34 <=1 
C679: x21+x35 <=1 
C680: x21+x36 <=1 
C681: x21+x37-y21_37 <=1 
C682: x21+x38 <=1 
C683: x21+x39 <=1 
C684: x21+x41 <=1 
C685: x21+x42-y21_42 <=1 
C686: x21+x43 <=1 
C687: x21+x44 <=1 
C688: x21+x45 <=1 
C689: x21+x47-y21_47 <=1 
C690: x21+x49 <=1 
C691: x21+x50 <=1 
C692: x21+x52 <=1 
C693: x21+x53 <=1 
C694: x21+x55-y21_55 <=1 
C695: x21+x57 <=1 
C696: x21+x58 <=1 
C697: x21+x59 <=1 
C698: x21+x60-y21_60 <=1 
C699: x21+x61 <=1 
C700: x21+x62-y21_62 <=1 
C701: x22+x27-y22_27 <=1 
C702: x22+x28-y22_28 <=1 
C703: x22+x30 <=1 
C704: x22+x31 <=1 
C705: x22+x32 <=1 
C706: x22+x33-y22_33 <=1 
C707: x22+x35-y22_35 <=1 
C708: x22+x36 <=1 
C709: x22+x37 <=1 
C710: x22+x38 <=1 
C711: x22+x41-y22_41 <=1 
C712: x22+x45 <=1 
C713: x22+x48 <=1 
C714: x22+x50 <=1 
C715: x22+x52-y22_52 <=1 
C716: x22+x55-y22_55 <=1 
C717: x22+x57 <=1 
C718: x22+x58-y22_58 <=1 
C719: x22+x59-y22_59 <=1 
C720: x22+x60-y22_60 <=1 
C721: x22+x61 <=1 
C722: x22+x62-y22_62 <=1 
C723: x23+x26-y23_26 <=1 
C724: x23+x28 <=1 
C725: x23+x30 <=1 
C726: x23+x31-y23_31 <=1 
C727: x23+x32 <=1 
C728: x23+x34 <=1 
C729: x23+x35-y23_35 <=1 
C730: x23+x38-y23_38 <=1 
C731: x23+x40-y23_40 <=1 
C732: x23+x42 <=1 
C733: x23+x43-y23_43 <=1 
C734: x23+x44-y23_44 <=1 
C735: x23+x46 <=1 
C736: x23+x47-y23_47 <=1 
C737: x23+x48-y23_48 <=1 
C738: x23+x50 <=1 
C739: x23+x52 <=1 
C740: x23+x53 <=1 
C741: x23+x54 <=1 
C742: x23+x56-y23_56 <=1 
C743: x23+x59 <=1 
C744: x23+x61-y23_61 <=1 
C745: x23+x62 <=1 
C746: x24+x25 <=1 
C747: x24+x26 <=1 
C748: x24+x30-y24_30 <=1 
C749: x24+x32-y24_32 <=1 
C750: x24+x35-y24_35 <=1 
C751: x24+x37-y24_37 <=1 
C752: x24+x38 <=1 
C753: x24+x39 <=1 
C754: x24+x40-y24_40 <=1 
C755: x24+x41-y24_41 <=1 
C756: x24+x42 <=1 
C757: x24+x44 <=1 
C758: x24+x45 <=1 
C759: x24+x46 <=1 
C760: x24+x47 <=1 
C761: x24+x48 <=1 
C762: x24+x49-y24_49 <=1 
C763: x24+x54 <=1 
C764: x24+x55-y24_55 <=1 
C765: x24+x56-y24_56 <=1 
C766: x24+x58 <=1 
C767: x24+x61 <=1 
C768: x24+x62-y24_62 <=1 
C769: x25+x26 <=1 
C770: x25+x31 <=1 
C771: x25+x35-y25_35 <=1 
C772: x25+x36-y25_36 <=1 
C773: x25+x38 <=1 
C774: x25+x39 <=1 
C775: x25+x42-y25_42 <=1 
C776: x25+x44 <=1 
C777: x25+x47 <=1 
C778: x25+x49-y25_49 <=1 
C779: x25+x51 <=1 
C780: x25+x52-y25_52 <=1 
C781: x25+x54-y25_54 <=1 
C782: x25+x55-y25_55 <=1 
C783: x25+x58-y25_58 <=1 
C784: x25+x59 <=1 
C785: x25+x60 <=1 
C786: x25+x61 <=1 
C787: x25+x62-y25_62 <=1 
C788: x26+x27-y26_27 <=1 
C789: x26+x28 <=1 
C790: x26+x30 <=1 
C791: x26+x32 <=1 
C792: x26+x33 <=1 
C793: x26+x34 <=1 
C794: x26+x35-y26_35 <=1 
C795: x26+x36-y26_36 <=1 
C796: x26+x37-y26_37 <=1 
C797: x26+x40 <=1 
C798: x26+x41 <=1 
C799: x26+x44-y26_44 <=1 
C800: x26+x45-y26_45 <=1 
C801: x26+x47 <=1 
C802: x26+x49 <=1 
C803: x26+x51 <=1 
C804: x26+x53 <=1 
C805: x26+x56-y26_56 <=1 
C806: x26+x57 <=1 
C807: x26+x61-y26_61 <=1 
C808: x26+x62 <=1 
C809: x27+x32 <=1 
C810: x27+x35-y27_35 <=1 
C811: x27+x37-y27_37 <=1 
C812: x27+x38 <=1 
C813: x27+x39 <=1 
C814: x27+x40 <=1 
C815: x27+x44-y27_44 <=1 
C816: x27+x45-y27_45 <=1 
C817: x27+x46-y27_46 <=1 
C818: x27+x47 <=1 
C819: x27+x48 <=1 
C820: x27+x50-y27_50 <=1 
C821: x27+x52-y27_52 <=1 
C822: x27+x55 <=1 
C823: x27+x56-y27_56 <=1 
C824: x27+x57 <=1 
C825: x27+x59 <=1 
C826: x27+x60 <=1 
C827: x27+x61-y27_61 <=1 
C828: x27+x62-y27_62 <=1 
C829: x28+x29 <=1 
C830: x28+x30 <=1 
C831: x28+x33 <=1 
C832: x28+x34-y28_34 <=1 
C833: x28+x36 <=1 
C834: x28+x38 <=1 
C835: x28+x39-y28_39 <=1 
C836: x28+x40 <=1 
C837: x28+x41-y28_41 <=1 
C838: x28+x43-y28_43 <=1 
C839: x28+x44-y28_44 <=1 
C840: x28+x46-y28_46 <=1 
C841: x28+x47-y28_47 <=1 
C842: x28+x48-y28_48 <=1 
C843: x28+x50-y28_50 <=1 
C844: x28+x56-y28_56 <=1 
C845: x28+x58 <=1 
C846: x28+x60-y28_60 <=1 
C847: x28+x62 <=1 
C848: x29+x30 <=1 
C849: x29+x31 <=1 
C850: x29+x33-y29_33 <=1 
C851: x29+x34 <=1 
C852: x29+x35 <=1 
C853: x29+x36-y29_36 <=1 
C854: x29+x37-y29_37 <=1 
C855: x29+x38 <=1 
C856: x29+x40 <=1 
C857: x29+x41-y29_41 <=1 
C858: x29+x43-y29_43 <=1 
C859: x29+x44 <=1 
C860: x29+x45 <=1 
C861: x29+x46 <=1 
C862: x29+x49-y29_49 <=1 
C863: x29+x50 <=1 
C864: x29+x51 <=1 
C865: x29+x52-y29_52 <=1 
C866: x29+x53-y29_53 <=1 
C867: x29+x55 <=1 
C868: x29+x56 <=1 
C869: x29+x57-y29_57 <=1 
C870: x29+x60-y29_60 <=1 
C871: x29+x62-y29_62 <=1 
C872: x30+x31-y30_31 <=1 
C873: x30+x32 <=1 
C874: x30+x33 <=1 
C875: x30+x34 <=1 
C876: x30+x35-y30_35 <=1 
C877: x30+x36-y30_36 <=1 
C878: x30+x38 <=1 
C879: x30+x39-y30_39 <=1 
C880: x30+x40 <=1 
C881: x30+x42 <=1 
C882: x30+x43-y30_43 <=1 
C883: x30+x44-y30_44 <=1 
C884: x30+x46 <=1 
C885: x30+x50-y30_50 <=1 
C886: x30+x51 <=1 
C887: x30+x52 <=1 
C888: x30+x55 <=1 
C889: x30+x57-y30_57 <=1 
C890: x30+x58-y30_58 <=1 
C891: x30+x60-y30_60 <=1 
C892: x30+x62 <=1 
C893: x31+x32-y31_32 <=1 
C894: x31+x33 <=1 
C895: x31+x34 <=1 
C896: x31+x36-y31_36 <=1 
C897: x31+x38-y31_38 <=1 
C898: x31+x39-y31_39 <=1 
C899: x31+x40 <=1 
C900: x31+x41-y31_41 <=1 
C901: x31+x42-y31_42 <=1 
C902: x31+x44-y31_44 <=1 
C903: x31+x46-y31_46 <=1 
C904: x31+x47-y31_47 <=1 
C905: x31+x48 <=1 
C906: x31+x49-y31_49 <=1 
C907: x31+x54-y31_54 <=1 
C908: x31+x55-y31_55 <=1 
C909: x31+x56 <=1 
C910: x31+x57 <=1 
C911: x31+x59-y31_59 <=1 
C912: x31+x60-y31_60 <=1 
C913: x31+x61-y31_61 <=1 
C914: x31+x62-y31_62 <=1 
C915: x32+x33 <=1 
C916: x32+x34 <=1 
C917: x32+x35-y32_35 <=1 
C918: x32+x36 <=1 
C919: x32+x37 <=1 
C920: x32+x38-y32_38 <=1 
C921: x32+x42-y32_42 <=1 
C922: x32+x43-y32_43 <=1 
C923: x32+x45-y32_45 <=1 
C924: x32+x47 <=1 
C925: x32+x48 <=1 
C926: x32+x51 <=1 
C927: x32+x52 <=1 
C928: x32+x54 <=1 
C929: x32+x55-y32_55 <=1 
C930: x32+x56 <=1 
C931: x32+x57 <=1 
C932: x32+x58-y32_58 <=1 
C933: x32+x62-y32_62 <=1 
C934: x33+x36 <=1 
C935: x33+x37 <=1 
C936: x33+x39 <=1 
C937: x33+x40-y33_40 <=1 
C938: x33+x41 <=1 
C939: x33+x43-y33_43 <=1 
C940: x33+x44 <=1 
C941: x33+x45-y33_45 <=1 
C942: x33+x46 <=1 
C943: x33+x49-y33_49 <=1 
C944: x33+x51 <=1 
C945: x33+x52 <=1 
C946: x33+x53 <=1 
C947: x33+x55 <=1 
C948: x33+x56-y33_56 <=1 
C949: x33+x57-y33_57 <=1 
C950: x33+x59 <=1 
C951: x33+x60 <=1 
C952: x33+x62-y33_62 <=1 
C953: x34+x35-y34_35 <=1 
C954: x34+x39 <=1 
C955: x34+x41 <=1 
C956: x34+x45-y34_45 <=1 
C957: x34+x47 <=1 
C958: x34+x49 <=1 
C959: x34+x50 <=1 
C960: x34+x51 <=1 
C961: x34+x53 <=1 
C962: x34+x54-y34_54 <=1 
C963: x34+x56-y34_56 <=1 
C964: x34+x57-y34_57 <=1 
C965: x34+x58-y34_58 <=1 
C966: x34+x62-y34_62 <=1 
C967: x35+x38-y35_38 <=1 
C968: x35+x39-y35_39 <=1 
C969: x35+x40-y35_40 <=1 
C970: x35+x41-y35_41 <=1 
C971: x35+x42 <=1 
C972: x35+x43 <=1 
C973: x35+x44 <=1 
C974: x35+x45 <=1 
C975: x35+x46 <=1 
C976: x35+x47 <=1 
C977: x35+x50 <=1 
C978: x35+x51 <=1 
C979: x35+x52-y35_52 <=1 
C980: x35+x54-y35_54 <=1 
C981: x35+x55 <=1 
C982: x35+x59 <=1 
C983: x35+x61 <=1 
C984: x35+x62-y35_62 <=1 
C985: x36+x39-y36_39 <=1 
C986: x36+x40-y36_40 <=1 
C987: x36+x41 <=1 
C988: x36+x45-y36_45 <=1 
C989: x36+x46 <=1 
C990: x36+x47-y36_47 <=1 
C991: x36+x48-y36_48 <=1 
C992: x36+x50 <=1 
C993: x36+x52 <=1 
C994: x36+x53 <=1 
C995: x36+x54 <=1 
C996: x36+x55-y36_55 <=1 
C997: x36+x58-y36_58 <=1 
C998: x36+x60 <=1 
C999: x36+x61 <=1 
C1000: x36+x62 <=1 
C1001: x37+x38-y37_38 <=1 
C1002: x37+x40 <=1 
C1003: x37+x42 <=1 
C1004: x37+x45 <=1 
C1005: x37+x47 <=1 
C1006: x37+x48-y37_48 <=1 
C1007: x37+x49-y37_49 <=1 
C1008: x37+x50 <=1 
C1009: x37+x51 <=1 
C1010: x37+x53-y37_53 <=1 
C1011: x37+x57-y37_57 <=1 
C1012: x37+x58-y37_58 <=1 
C1013: x37+x59 <=1 
C1014: x37+x60-y37_60 <=1 
C1015: x37+x62 <=1 
C1016: x38+x40-y38_40 <=1 
C1017: x38+x42 <=1 
C1018: x38+x44-y38_44 <=1 
C1019: x38+x45-y38_45 <=1 
C1020: x38+x46-y38_46 <=1 
C1021: x38+x47 <=1 
C1022: x38+x48 <=1 
C1023: x38+x49-y38_49 <=1 
C1024: x38+x51-y38_51 <=1 
C1025: x38+x52 <=1 
C1026: x38+x55 <=1 
C1027: x38+x56-y38_56 <=1 
C1028: x38+x61-y38_61 <=1 
C1029: x39+x40 <=1 
C1030: x39+x41 <=1 
C1031: x39+x42-y39_42 <=1 
C1032: x39+x44-y39_44 <=1 
C1033: x39+x45 <=1 
C1034: x39+x46-y39_46 <=1 
C1035: x39+x47-y39_47 <=1 
C1036: x39+x48-y39_48 <=1 
C1037: x39+x50 <=1 
C1038: x39+x51-y39_51 <=1 
C1039: x39+x52 <=1 
C1040: x39+x53-y39_53 <=1 
C1041: x39+x54 <=1 
C1042: x39+x56 <=1 
C1043: x39+x57-y39_57 <=1 
C1044: x39+x58-y39_58 <=1 
C1045: x39+x60 <=1 
C1046: x39+x61-y39_61 <=1 
C1047: x39+x62 <=1 
C1048: x40+x41 <=1 
C1049: x40+x42-y40_42 <=1 
C1050: x40+x43 <=1 
C1051: x40+x44-y40_44 <=1 
C1052: x40+x45-y40_45 <=1 
C1053: x40+x46 <=1 
C1054: x40+x47 <=1 
C1055: x40+x49 <=1 
C1056: x40+x53 <=1 
C1057: x40+x54-y40_54 <=1 
C1058: x40+x55-y40_55 <=1 
C1059: x40+x56 <=1 
C1060: x40+x57 <=1 
C1061: x40+x58 <=1 
C1062: x40+x59-y40_59 <=1 
C1063: x40+x60 <=1 
C1064: x40+x61-y40_61 <=1 
C1065: x41+x42-y41_42 <=1 
C1066: x41+x46-y41_46 <=1 
C1067: x41+x47 <=1 
C1068: x41+x48-y41_48 <=1 
C1069: x41+x49-y41_49 <=1 
C1070: x41+x51-y41_51 <=1 
C1071: x41+x53 <=1 
C1072: x41+x54 <=1 
C1073: x41+x55-y41_55 <=1 
C1074: x41+x57-y41_57 <=1 
C1075: x41+x59-y41_59 <=1 
C1076: x41+x61 <=1 
C1077: x42+x43 <=1 
C1078: x42+x44-y42_44 <=1 
C1079: x42+x45 <=1 
C1080: x42+x48-y42_48 <=1 
C1081: x42+x52-y42_52 <=1 
C1082: x42+x53 <=1 
C1083: x42+x54-y42_54 <=1 
C1084: x42+x55-y42_55 <=1 
C1085: x42+x56 <=1 
C1086: x42+x57-y42_57 <=1 
C1087: x42+x58 <=1 
C1088: x42+x59 <=1 
C1089: x42+x61-y42_61 <=1 
C1090: x43+x46 <=1 
C1091: x43+x49 <=1 
C1092: x43+x50 <=1 
C1093: x43+x52 <=1 
C1094: x43+x53-y43_53 <=1 
C1095: x43+x57 <=1 
C1096: x43+x58 <=1 
C1097: x43+x60-y43_60 <=1 
C1098: x43+x61 <=1 
C1099: x44+x47 <=1 
C1100: x44+x49 <=1 
C1101: x44+x50-y44_50 <=1 
C1102: x44+x52 <=1 
C1103: x44+x54-y44_54 <=1 
C1104: x44+x57 <=1 
C1105: x44+x58 <=1 
C1106: x44+x60 <=1 
C1107: x44+x61 <=1 
C1108: x45+x46 <=1 
C1109: x45+x50-y45_50 <=1 
C1110: x45+x52 <=1 
C1111: x45+x53-y45_53 <=1 
C1112: x45+x54 <=1 
C1113: x45+x57 <=1 
C1114: x45+x59 <=1 
C1115: x45+x61-y45_61 <=1 
C1116: x45+x62 <=1 
C1117: x46+x49 <=1 
C1118: x46+x51-y46_51 <=1 
C1119: x46+x52-y46_52 <=1 
C1120: x46+x53 <=1 
C1121: x46+x54 <=1 
C1122: x46+x55-y46_55 <=1 
C1123: x46+x58-y46_58 <=1 
C1124: x46+x60 <=1 
C1125: x46+x61 <=1 
C1126: x46+x62-y46_62 <=1 
C1127: x47+x48 <=1 
C1128: x47+x50-y47_50 <=1 
C1129: x47+x51 <=1 
C1130: x47+x52 <=1 
C1131: x47+x53-y47_53 <=1 
C1132: x47+x54 <=1 
C1133: x47+x55-y47_55 <=1 
C1134: x47+x57-y47_57 <=1 
C1135: x47+x58 <=1 
C1136: x47+x59-y47_59 <=1 
C1137: x47+x60 <=1 
C1138: x47+x61-y47_61 <=1 
C1139: x47+x62-y47_62 <=1 
C1140: x48+x50 <=1 
C1141: x48+x52 <=1 
C1142: x48+x54-y48_54 <=1 
C1143: x48+x55 <=1 
C1144: x48+x57 <=1 
C1145: x48+x62-y48_62 <=1 
C1146: x49+x50 <=1 
C1147: x49+x51 <=1 
C1148: x49+x52 <=1 
C1149: x49+x53 <=1 
C1150: x49+x59 <=1 
C1151: x49+x61-y49_61 <=1 
C1152: x49+x62 <=1 
C1153: x50+x51 <=1 
C1154: x50+x53 <=1 
C1155: x50+x54 <=1 
C1156: x50+x55-y50_55 <=1 
C1157: x50+x62 <=1 
C1158: x51+x53-y51_53 <=1 
C1159: x51+x54 <=1 
C1160: x51+x55-y51_55 <=1 
C1161: x51+x58 <=1 
C1162: x51+x59-y51_59 <=1 
C1163: x51+x60-y51_60 <=1 
C1164: x51+x61-y51_61 <=1 
C1165: x51+x62 <=1 
C1166: x52+x55-y52_55 <=1 
C1167: x52+x56 <=1 
C1168: x52+x57-y52_57 <=1 
C1169: x52+x58-y52_58 <=1 
C1170: x52+x59 <=1 
C1171: x52+x60 <=1 
C1172: x52+x61 <=1 
C1173: x53+x54-y53_54 <=1 
C1174: x53+x55-y53_55 <=1 
C1175: x53+x57 <=1 
C1176: x53+x59 <=1 
C1177: x53+x60 <=1 
C1178: x53+x61-y53_61 <=1 
C1179: x54+x55-y54_55 <=1 
C1180: x54+x60-y54_60 <=1 
C1181: x54+x62-y54_62 <=1 
C1182: x55+x56-y55_56 <=1 
C1183: x55+x58-y55_58 <=1 
C1184: x55+x59 <=1 
C1185: x55+x60 <=1 
C1186: x55+x61-y55_61 <=1 
C1187: x55+x62 <=1 
C1188: x56+x57 <=1 
C1189: x56+x60-y56_60 <=1 
C1190: x56+x61-y56_61 <=1 
C1191: x56+x62 <=1 
C1192: x57+x58-y57_58 <=1 
C1193: x57+x59 <=1 
C1194: x57+x60 <=1 
C1195: x57+x61-y57_61 <=1 
C1196: x57+x62-y57_62 <=1 
C1197: x58+x59-y58_59 <=1 
C1198: x58+x61-y58_61 <=1 
C1199: x59+x60 <=1 
C1200: x59+x61 <=1 
C1201: x59+x62 <=1 
C1202: x60+x61 <=1 
C1203: x61+x62 <=1 

binary
x0
x1
x2
x3
x4
x5
x6
x7
x8
x9
x10
x11
x12
x13
x14
x15
x16
x17
x18
x19
x20
x21
x22
x23
x24
x25
x26
x27
x28
x29
x30
x31
x32
x33
x34
x35
x36
x37
x38
x39
x40
x41
x42
x43
x44
x45
x46
x47
x48
x49
x50
x51
x52
x53
x54
x55
x56
x57
x58
x59
x60
x61
x62
