problem_generation/data/GISP/train/er_n=63_m=1203_p=0.60_SET2_setparam=100.00_alpha=0.50_438.sol
objective value:                                 1179
x5                                                  1 	(obj:100)
x15                                                 1 	(obj:100)
x16                                                 1 	(obj:100)
x25                                                 1 	(obj:100)
x27                                                 1 	(obj:100)
x30                                                 1 	(obj:100)
x35                                                 1 	(obj:100)
x37                                                 1 	(obj:100)
x49                                                 1 	(obj:100)
x54                                                 1 	(obj:100)
x56                                                 1 	(obj:100)
x58                                                 1 	(obj:100)
y15_30                                              1 	(obj:-1)
y16_56                                              1 	(obj:-1)
y35_54                                              1 	(obj:-1)
y5_35                                               1 	(obj:-1)
y37_58                                              1 	(obj:-1)
y16_35                                              1 	(obj:-1)
y5_16                                               1 	(obj:-1)
y16_30                                              1 	(obj:-1)
y27_35                                              1 	(obj:-1)
y30_58                                              1 	(obj:-1)
y30_35                                              1 	(obj:-1)
y25_54                                              1 	(obj:-1)
y16_58                                              1 	(obj:-1)
y25_35                                              1 	(obj:-1)
y5_15                                               1 	(obj:-1)
y27_56                                              1 	(obj:-1)
y27_37                                              1 	(obj:-1)
y25_49                                              1 	(obj:-1)
y25_58                                              1 	(obj:-1)
y15_58                                              1 	(obj:-1)
y37_49                                              1 	(obj:-1)
